experiment/data/lkh-res/Vrp-Set-B-n57/Vrp-Set-B-n57-lkh/1.lkh1.vrp
NAME : 1
COMMENT : CVRP Instance
TYPE : CVRP
DIMENSION : 57
EDGE_WEIGHT_TYPE : EUC_2D
CAPACITY : 100
NODE_COORD_SECTION
1	1900	100
2	8300	6100
3	5900	9500
4	7300	2500
5	5100	5300
6	2300	4900
7	6300	1900
8	5100	8100
9	100	8900
10	9700	4100
11	7400	3000
12	6000	8800
13	5800	5400
14	6300	9500
15	6500	8900
16	600	9400
17	6100	9700
18	7500	3100
19	10600	4800
20	6900	9300
21	5600	8400
22	2600	5400
23	6600	2400
24	6000	9800
25	9200	6600
26	800	9200
27	6400	10200
28	10400	4800
29	10400	4200
30	3000	5200
31	5200	5400
32	7700	3300
33	6800	2000
34	5600	6200
35	6500	9100
36	5400	6000
37	2600	5200
38	5200	9000
39	5600	5600
40	6600	10200
41	7200	2400
42	2800	5600
43	5800	8200
44	8400	6600
45	6300	9300
46	8800	6400
47	7400	2800
48	2600	5000
49	5800	5800
50	5200	5600
51	7600	2600
52	800	9200
53	9000	6800
54	3200	5000
55	8400	6600
56	7800	3400
57	6400	2400
DEMAND_SECTION
1	0
2	18
3	16
4	23
5	20
6	18
7	19
8	2
9	4
10	10
11	2
12	26
13	21
14	10
15	8
16	20
17	21
18	4
19	5
20	15
21	18
22	2
23	21
24	20
25	23
26	13
27	22
28	17
29	11
30	7
31	13
32	13
33	16
34	14
35	25
36	18
37	2
38	19
39	6
40	19
41	9
42	24
43	2
44	13
45	17
46	20
47	24
48	8
49	15
50	7
51	7
52	4
53	22
54	11
55	10
56	25
57	24
DEPOT_SECTION
1
-1
EOF
