experiment/data/lkh-res/Vrp-Set-B-n57/Vrp-Set-B-n57-lkh/1.lkh1.tour
NAME : 1.160228.tour
COMMENT : Length = 160228
COMMENT : Found by LKH-3 [Keld Helsgaun] Tue Apr  9 00:59:25 2024
TYPE : TOUR
DIMENSION : 65
TOUR_SECTION
1
7
57
60
54
30
42
22
37
48
6
58
32
56
10
29
19
28
2
62
9
16
26
52
38
12
34
65
8
17
24
27
40
20
59
21
3
14
45
35
15
43
64
33
41
4
51
47
23
63
5
31
50
36
49
39
13
61
11
18
46
25
53
55
44
-1
EOF
